objective value:                               579495
t_x1                                                1 	(obj:3304)
t_x3                                                1 	(obj:3304)
t_x5                                                1 	(obj:3304)
t_x8                                                1 	(obj:3304)
t_x11                                               1 	(obj:3304)
t_x15                                               1 	(obj:3304)
t_x25                                               1 	(obj:3304)
t_x28                                               1 	(obj:3304)
t_x34                                               1 	(obj:3304)
t_x40                                               1 	(obj:3304)
t_x49                                               1 	(obj:3304)
t_x55                                               1 	(obj:3304)
t_x61                                               1 	(obj:3304)
t_x70                                               1 	(obj:3304)
t_x76                                               1 	(obj:3304)
t_x85                                               1 	(obj:3304)
t_x86                                               1 	(obj:3304)
t_x90                                               1 	(obj:3304)
t_x95                                               1 	(obj:3304)
t_x101                                              1 	(obj:3304)
t_x105                                              1 	(obj:3304)
t_x108                                              1 	(obj:3304)
t_x110                                              1 	(obj:3304)
t_x115                                              1 	(obj:3304)
t_x117                                              1 	(obj:3304)
t_x123                                              1 	(obj:3304)
t_x126                                              1 	(obj:3304)
t_x128                                              1 	(obj:3304)
t_x132                                              1 	(obj:3304)
t_x135                                              1 	(obj:3304)
t_x137                                              1 	(obj:3304)
t_x139                                              1 	(obj:3304)
t_x140                                              1 	(obj:3304)
t_x142                                              1 	(obj:3304)
t_x143                                              1 	(obj:3304)
t_x151                                              1 	(obj:3304)
t_x152                                              1 	(obj:3304)
t_x160                                              1 	(obj:3304)
t_x163                                              1 	(obj:3304)
t_x166                                              1 	(obj:3304)
t_x170                                              1 	(obj:3304)
t_x173                                              1 	(obj:3304)
t_x178                                              1 	(obj:3304)
t_x180                                              1 	(obj:3304)
t_x183                                              1 	(obj:3304)
t_x188                                              1 	(obj:3304)
t_x189                                              1 	(obj:3304)
t_x190                                              1 	(obj:3304)
t_x191                                              1 	(obj:3304)
t_x194                                              1 	(obj:3304)
t_x199                                              1 	(obj:3304)
t_x200                                              1 	(obj:3304)
t_x201                                              1 	(obj:3304)
t_x205                                              1 	(obj:3304)
t_x218                                              1 	(obj:3304)
t_x219                                              1 	(obj:3304)
t_x220                                              1 	(obj:3304)
t_x228                                              1 	(obj:3304)
t_x230                                              1 	(obj:3304)
t_x237                                              1 	(obj:3304)
t_x247                                              1 	(obj:3304)
t_x249                                              1 	(obj:3304)
t_x256                                              1 	(obj:3304)
t_x265                                              1 	(obj:3304)
t_x271                                              1 	(obj:3304)
t_x275                                              1 	(obj:3304)
t_x277                                              1 	(obj:3304)
t_x280                                              1 	(obj:3304)
t_x281                                              1 	(obj:3304)
t_x286                                              1 	(obj:3304)
t_x289                                              1 	(obj:3304)
t_x291                                              1 	(obj:3304)
t_x292                                              1 	(obj:3304)
t_x298                                              1 	(obj:3304)
t_x300                                              1 	(obj:3304)
t_x301                                              1 	(obj:3304)
t_x303                                              1 	(obj:3304)
t_x306                                              1 	(obj:3304)
t_x308                                              1 	(obj:3304)
t_x309                                              1 	(obj:3304)
t_x312                                              1 	(obj:3304)
t_x316                                              1 	(obj:3304)
t_x317                                              1 	(obj:3304)
t_x325                                              1 	(obj:3304)
t_x328                                              1 	(obj:3304)
t_x333                                              1 	(obj:3304)
t_x334                                              1 	(obj:3304)
t_x335                                              1 	(obj:3304)
t_x339                                              1 	(obj:3304)
t_x345                                              1 	(obj:3304)
t_x348                                              1 	(obj:3304)
t_x349                                              1 	(obj:3304)
t_x350                                              1 	(obj:3304)
t_x355                                              1 	(obj:3304)
t_x358                                              1 	(obj:3304)
t_x359                                              1 	(obj:3304)
t_x360                                              1 	(obj:3304)
t_x364                                              1 	(obj:3304)
t_x365                                              1 	(obj:3304)
t_x368                                              1 	(obj:3304)
t_x369                                              1 	(obj:3304)
t_x379                                              1 	(obj:3304)
t_x384                                              1 	(obj:3304)
t_x391                                              1 	(obj:3304)
t_x392                                              1 	(obj:3304)
t_x400                                              1 	(obj:3304)
t_x402                                              1 	(obj:3304)
t_x410                                              1 	(obj:3304)
t_x421                                              1 	(obj:3304)
t_x422                                              1 	(obj:3304)
t_x431                                              1 	(obj:3304)
t_x432                                              1 	(obj:3304)
t_x441                                              1 	(obj:3304)
t_x442                                              1 	(obj:3304)
t_x446                                              1 	(obj:3304)
t_x447                                              1 	(obj:3304)
t_x450                                              1 	(obj:3304)
t_x452                                              1 	(obj:3304)
t_x457                                              1 	(obj:3304)
t_x459                                              1 	(obj:3304)
t_x461                                              1 	(obj:3304)
t_x468                                              1 	(obj:3304)
t_x474                                              1 	(obj:3304)
t_x478                                              1 	(obj:3304)
t_x481                                              1 	(obj:3304)
t_x488                                              1 	(obj:3304)
t_x508                                              1 	(obj:3304)
t_x511                                              1 	(obj:3304)
t_x520                                              1 	(obj:3304)
t_x526                                              1 	(obj:3304)
t_x530                                              1 	(obj:3304)
t_x532                                              1 	(obj:3304)
t_x541                                              1 	(obj:3304)
t_x551                                              1 	(obj:3304)
t_x554                                              1 	(obj:3304)
t_x559                                              1 	(obj:3304)
t_x560                                              1 	(obj:3304)
t_x561                                              1 	(obj:3304)
t_x564                                              1 	(obj:3304)
t_x569                                              1 	(obj:3304)
t_x571                                              1 	(obj:3304)
t_x574                                              1 	(obj:3304)
t_x577                                              1 	(obj:3304)
t_x584                                              1 	(obj:3304)
t_x586                                              1 	(obj:3304)
t_x592                                              1 	(obj:3304)
t_x593                                              1 	(obj:3304)
t_x600                                              1 	(obj:3304)
t_x602                                              1 	(obj:3304)
t_x604                                              1 	(obj:3304)
t_x607                                              1 	(obj:3304)
t_x608                                              1 	(obj:3304)
t_x610                                              1 	(obj:3304)
t_x611                                              1 	(obj:3304)
t_x614                                              1 	(obj:3304)
t_x616                                              1 	(obj:3304)
t_x617                                              1 	(obj:3304)
t_x619                                              1 	(obj:3304)
t_x621                                              1 	(obj:3304)
t_x622                                              1 	(obj:3304)
t_x623                                              1 	(obj:3304)
t_x626                                              1 	(obj:3304)
t_x627                                              1 	(obj:3304)
t_x628                                              1 	(obj:3304)
t_x629                                              1 	(obj:3304)
t_x643                                              1 	(obj:3304)
t_x644                                              1 	(obj:3304)
t_x645                                              1 	(obj:3304)
t_x649                                              1 	(obj:3304)
t_x650                                              1 	(obj:3304)
t_x2153                                             1 	(obj:699)
t_x3602                                             1 	(obj:706)
t_x4883                                             1 	(obj:704)
t_x5290                                             1 	(obj:696)
t_x14864                                            1 	(obj:685)
t_x16920                                            1 	(obj:680)
t_x17498                                            1 	(obj:692)
t_x22642                                            1 	(obj:646)
t_x23492                                            1 	(obj:683)
t_x28266                                            1 	(obj:654)
t_x29595                                            1 	(obj:700)
t_x31842                                            1 	(obj:700)
t_x37692                                            1 	(obj:630)
t_x39862                                            1 	(obj:693)
t_x41290                                            1 	(obj:696)
t_x42397                                            1 	(obj:678)
t_x42988                                            1 	(obj:687)
t_x44753                                            1 	(obj:700)
t_x50388                                            1 	(obj:700)
t_x51528                                            1 	(obj:696)
t_x53016                                            1 	(obj:647)
t_x55528                                            1 	(obj:696)
t_x55614                                            1 	(obj:696)
t_x56686                                            1 	(obj:696)
t_x56874                                            1 	(obj:683)
t_x64619                                            1 	(obj:672)
